#definition

# set
set V := C1 C2 C3 C4 C5 ; 	# customer set
set F := F6 F7 F8 F6_1 F6_2 F7_1 F7_2 F8_1 F8_2 ;#recharging & battery swapping station
set D0 :=N0;
set Dσ :=Nσ;


# param
param CV := 50;    		# ECV fixed cost(Topic Given)
param C := 200;   		# ECV max load
param Q := 60.63; 		# ECV/BSV battery level
param h := 1;     		# ECV consumption

param CB := 60;    		# BSV fixed cost(Topic Given)
param Qplun := 5;       # BSV max load(battery)
param hplun := 1;     	# BSV consumption
param W := 121.26;		# BSV battery level

param Cde := 1;    		# ECV cost per unit distance
param Cdb := 1;    		# BSV cost per unit distance
param lamda := 3.00;	# battery swap time
param Cb :=8 ;  	    # battery swap cost(BSS/BSV)
param n :=5;	   		# number of customers
param g :=1.47 ;     	# the recharging rate of ECV 



# customer demend
param m :=
N0 0
C1 15
C2 10
C3 26
C4 26
C5 9
F6 0
F7 0
F8 0
F6_1 0
F6_2 0
F7_1 0
F7_2 0
F8_1 0
F8_2 0
Nσ 0;

param e :=
N0 0
C1 0
C2 0
C3 0
C4 93
C5 83
F6 0
F7 0
F8 0
F6_1 0
F6_2 0
F7_1 0
F7_2 0
F8_1 0
F8_2 0
Nσ 0;

param l :=
N0 230
C1 180
C2 204
C3 199
C4 103
C5 93
F6 230
F7 230
F8 230
F6_1 230
F6_2 230
F7_1 230
F7_2 230
F8_1 230
F8_2 230
Nσ 230;

param s :=
N0 0
C1 10
C2 10
C3 10
C4 10
C5 10
F6 0
F7 0
F8 0
F6_1 0
F6_2 0
F7_1 0
F7_2 0
F8_1 0
F8_2 0
Nσ 0;

param d : N0 C1 C2 C3 C4 C5 F6 F7 F8 F6_1 F6_2 F7_1 F7_2 F8_1 F8_2 Nσ :=
N0 0.0000 39.6611 15.2315 20.6155 18.3848 17.4929 0.0000 28.1780 21.1896 0.0000 0.0000 28.1780 28.1780 21.1896 21.1896 0.0000
C1 39.6611 0.0000 24.8395 56.6392 57.8014 55.9732 39.6611 12.0416 49.3964 39.6611 39.6611 12.0416 12.0416 49.3964 49.3964 39.6611
C2 15.2315 24.8395 0.0000 32.2025 33.6155 31.1448 15.2315 13.0384 26.9258 15.2315 15.2315 13.0384 13.0384 26.9258 26.9258 15.2315
C3 20.6155 56.6392 32.2025 0.0000 17.6918 6.4031 20.6155 44.5982 12.0000 20.6155 20.6155 44.5982 44.5982 12.0000 12.0000 20.6155
C4 18.3848 57.8014 33.6155 17.6918 0.0000 11.3137 18.3848 46.5188 27.2947 18.3848 18.3848 46.5188 46.5188 27.2947 27.2947 18.3848
C5 17.4929 55.9732 31.1448 6.4031 11.3137 0.0000 17.4929 44.0454 16.7631 17.4929 17.4929 44.0454 44.0454 16.7631 16.7631 17.4929
F6 0.0000 39.6611 15.2315 20.6155 18.3848 17.4929 0.0000 28.1780 21.1896 0.0000 0.0000 28.1780 28.1780 21.1896 21.1896 0.0000
F7 28.1780 12.0416 13.0384 44.5982 46.5188 44.0454 28.1780 0.0000 37.5899 28.1780 28.1780 0.0000 0.0000 37.5899 37.5899 28.1780
F8 21.1896 49.3964 26.9258 12.0000 27.2947 16.7631 21.1896 37.5899 0.0000 21.1896 21.1896 37.5899 37.5899 0.0000 0.0000 21.1896
F6_1 0.0000 39.6611 15.2315 20.6155 18.3848 17.4929 0.0000 28.1780 21.1896 0.0000 0.0000 28.1780 28.1780 21.1896 21.1896 0.0000
F6_2 0.0000 39.6611 15.2315 20.6155 18.3848 17.4929 0.0000 28.1780 21.1896 0.0000 0.0000 28.1780 28.1780 21.1896 21.1896 0.0000
F7_1 28.1780 12.0416 13.0384 44.5982 46.5188 44.0454 28.1780 0.0000 37.5899 28.1780 28.1780 0.0000 0.0000 37.5899 37.5899 28.1780
F7_2 28.1780 12.0416 13.0384 44.5982 46.5188 44.0454 28.1780 0.0000 37.5899 28.1780 28.1780 0.0000 0.0000 37.5899 37.5899 28.1780
F8_1 21.1896 49.3964 26.9258 12.0000 27.2947 16.7631 21.1896 37.5899 0.0000 21.1896 21.1896 37.5899 37.5899 0.0000 0.0000 21.1896
F8_2 21.1896 49.3964 26.9258 12.0000 27.2947 16.7631 21.1896 37.5899 0.0000 21.1896 21.1896 37.5899 37.5899 0.0000 0.0000 21.1896
Nσ 0.0000 39.6611 15.2315 20.6155 18.3848 17.4929 0.0000 28.1780 21.1896 0.0000 0.0000 28.1780 28.1780 21.1896 21.1896 0.0000
;

param t : N0 C1 C2 C3 C4 C5 F6 F7 F8 F6_1 F6_2 F7_1 F7_2 F8_1 F8_2 Nσ :=
N0 0.0000 39.6611 15.2315 20.6155 18.3848 17.4929 0.0000 28.1780 21.1896 0.0000 0.0000 28.1780 28.1780 21.1896 21.1896 0.0000
C1 39.6611 0.0000 24.8395 56.6392 57.8014 55.9732 39.6611 12.0416 49.3964 39.6611 39.6611 12.0416 12.0416 49.3964 49.3964 39.6611
C2 15.2315 24.8395 0.0000 32.2025 33.6155 31.1448 15.2315 13.0384 26.9258 15.2315 15.2315 13.0384 13.0384 26.9258 26.9258 15.2315
C3 20.6155 56.6392 32.2025 0.0000 17.6918 6.4031 20.6155 44.5982 12.0000 20.6155 20.6155 44.5982 44.5982 12.0000 12.0000 20.6155
C4 18.3848 57.8014 33.6155 17.6918 0.0000 11.3137 18.3848 46.5188 27.2947 18.3848 18.3848 46.5188 46.5188 27.2947 27.2947 18.3848
C5 17.4929 55.9732 31.1448 6.4031 11.3137 0.0000 17.4929 44.0454 16.7631 17.4929 17.4929 44.0454 44.0454 16.7631 16.7631 17.4929
F6 0.0000 39.6611 15.2315 20.6155 18.3848 17.4929 0.0000 28.1780 21.1896 0.0000 0.0000 28.1780 28.1780 21.1896 21.1896 0.0000
F7 28.1780 12.0416 13.0384 44.5982 46.5188 44.0454 28.1780 0.0000 37.5899 28.1780 28.1780 0.0000 0.0000 37.5899 37.5899 28.1780
F8 21.1896 49.3964 26.9258 12.0000 27.2947 16.7631 21.1896 37.5899 0.0000 21.1896 21.1896 37.5899 37.5899 0.0000 0.0000 21.1896
F6_1 0.0000 39.6611 15.2315 20.6155 18.3848 17.4929 0.0000 28.1780 21.1896 0.0000 0.0000 28.1780 28.1780 21.1896 21.1896 0.0000
F6_2 0.0000 39.6611 15.2315 20.6155 18.3848 17.4929 0.0000 28.1780 21.1896 0.0000 0.0000 28.1780 28.1780 21.1896 21.1896 0.0000
F7_1 28.1780 12.0416 13.0384 44.5982 46.5188 44.0454 28.1780 0.0000 37.5899 28.1780 28.1780 0.0000 0.0000 37.5899 37.5899 28.1780
F7_2 28.1780 12.0416 13.0384 44.5982 46.5188 44.0454 28.1780 0.0000 37.5899 28.1780 28.1780 0.0000 0.0000 37.5899 37.5899 28.1780
F8_1 21.1896 49.3964 26.9258 12.0000 27.2947 16.7631 21.1896 37.5899 0.0000 21.1896 21.1896 37.5899 37.5899 0.0000 0.0000 21.1896
F8_2 21.1896 49.3964 26.9258 12.0000 27.2947 16.7631 21.1896 37.5899 0.0000 21.1896 21.1896 37.5899 37.5899 0.0000 0.0000 21.1896
Nσ 0.0000 39.6611 15.2315 20.6155 18.3848 17.4929 0.0000 28.1780 21.1896 0.0000 0.0000 28.1780 28.1780 21.1896 21.1896 0.0000
;